8 8
4
3 3 0 5
3 5 0 0
5 3 3 5
5 5 3 0
% time elapsed: 0.10 s
% time elapsed: 0.10 s
%%%mzn-stat: initTime=0.000292
%%%mzn-stat: solveTime=0.000156
%%%mzn-stat: solutions=4
%%%mzn-stat: variables=9
%%%mzn-stat: propagators=9
%%%mzn-stat: propagations=200
%%%mzn-stat: nodes=35
%%%mzn-stat: failures=0
%%%mzn-stat: restarts=3
%%%mzn-stat: peakDepth=9
%%%mzn-stat-end
